Minimize
	value: tt

Subject to
tt + 2000 s_1_1 > 0
tt - t_1_1 - 2000.000000 s_1_1 > -1998.020000
tt + 2000 s_2_1 > 0
tt - t_2_1 - 2000.000000 s_2_1 > -1998.781900
tt + 2000 s_1_2 > 0
tt - t_1_2 - 2000.000000 s_1_2 > -1997.220500
tt + 2000 s_2_2 > 0
tt - t_2_2 - 2000.000000 s_2_2 > -1997.576300
tt + 2000 s_1_3 > 0
tt - t_1_3 - 2000.000000 s_1_3 > -1994.780300
tt + 2000 s_2_3 > 0
tt - t_2_3 - 2000.000000 s_2_3 > -1996.070200
tt + 2000 s_1_4 > 0
tt - t_1_4 - 2000.000000 s_1_4 > -1997.062500
tt + 2000 s_2_4 > 0
tt - t_2_4 - 2000.000000 s_2_4 > -1997.536200
tt + 2000 s_1_5 > 0
tt - t_1_5 - 2036.570878 s_1_5 + 36.570878 s_1_2 > -1999.726000
tt + 2000 s_2_5 > 0
tt - t_2_5 - 2073.141756 s_2_5 + 73.141756 s_2_2 > -1998.766200
s_1_1 + s_2_1  = 1
s_1_2 + s_2_2  = 1
s_1_3 + s_2_3  = 1
s_1_4 + s_2_4  = 1
s_1_5 + s_2_5  = 1
t_1_1 - t_1_2 + 2000.000000 u_1_1_2 > 2.779500
t_1_2 - t_1_1 - 2000.000000 u_1_1_2 > -1998.020000
t_2_1 - t_2_2 + 2000.000000 u_2_1_2 > 2.423700
t_2_2 - t_2_1 - 2000.000000 u_2_1_2 > -1998.781900
t_1_1 - t_1_3 + 2000.000000 u_1_1_3 > 5.219700
t_1_3 - t_1_1 - 2000.000000 u_1_1_3 > -1998.020000
t_2_1 - t_2_3 + 2000.000000 u_2_1_3 > 3.929800
t_2_3 - t_2_1 - 2000.000000 u_2_1_3 > -1998.781900
t_1_1 - t_1_4 + 2000.000000 u_1_1_4 > 2.937500
t_1_4 - t_1_1 - 2000.000000 u_1_1_4 > -1998.020000
t_2_1 - t_2_4 + 2000.000000 u_2_1_4 > 2.463800
t_2_4 - t_2_1 - 2000.000000 u_2_1_4 > -1998.781900
t_1_5 - t_1_1 - 2000.000000 s_1_1 > -1989.987136
t_1_5 - t_2_1 - 2000.000000 s_2_1 > -1982.716172
t_2_5 - t_1_1 - 2000.000000 s_1_1 > -1989.987136
t_2_5 - t_2_1 - 2000.000000 s_2_1 > -1982.716172
t_1_2 - t_1_1 + 2000.000000 u_1_2_1 > 1.980000
t_1_1 - t_1_2 - 2000.000000 u_1_2_1 > -1997.220500
t_2_2 - t_2_1 + 2000.000000 u_2_2_1 > 1.218100
t_2_1 - t_2_2 - 2000.000000 u_2_2_1 > -1997.576300
t_1_2 - t_1_3 + 2000.000000 u_1_2_3 > 5.219700
t_1_3 - t_1_2 - 2000.000000 u_1_2_3 > -1997.220500
t_2_2 - t_2_3 + 2000.000000 u_2_2_3 > 3.929800
t_2_3 - t_2_2 - 2000.000000 u_2_2_3 > -1997.576300
t_1_2 - t_1_4 + 2000.000000 u_1_2_4 > 2.937500
t_1_4 - t_1_2 - 2000.000000 u_1_2_4 > -1997.220500
t_2_2 - t_2_4 + 2000.000000 u_2_2_4 > 2.463800
t_2_4 - t_2_2 - 2000.000000 u_2_2_4 > -1997.576300
t_1_5 - t_1_2 - 2000.000000 s_1_2 > -1989.187636
t_1_5 - t_2_2 - 2000.000000 s_2_2 > -1981.510572
t_2_5 - t_1_2 - 2000.000000 s_1_2 > -1989.187636
t_2_5 - t_2_2 - 2000.000000 s_2_2 > -1981.510572
t_1_3 - t_1_1 + 2000.000000 u_1_3_1 > 1.980000
t_1_1 - t_1_3 - 2000.000000 u_1_3_1 > -1994.780300
t_2_3 - t_2_1 + 2000.000000 u_2_3_1 > 1.218100
t_2_1 - t_2_3 - 2000.000000 u_2_3_1 > -1996.070200
t_1_3 - t_1_2 + 2000.000000 u_1_3_2 > 2.779500
t_1_2 - t_1_3 - 2000.000000 u_1_3_2 > -1994.780300
t_2_3 - t_2_2 + 2000.000000 u_2_3_2 > 2.423700
t_2_2 - t_2_3 - 2000.000000 u_2_3_2 > -1996.070200
t_1_3 - t_1_4 + 2000.000000 u_1_3_4 > 2.937500
t_1_4 - t_1_3 - 2000.000000 u_1_3_4 > -1994.780300
t_2_3 - t_2_4 + 2000.000000 u_2_3_4 > 2.463800
t_2_4 - t_2_3 - 2000.000000 u_2_3_4 > -1996.070200
t_1_5 - t_1_3 - 2000.000000 s_1_3 > -1986.747436
t_1_5 - t_2_3 - 2000.000000 s_2_3 > -1980.004472
t_2_5 - t_1_3 - 2000.000000 s_1_3 > -1986.747436
t_2_5 - t_2_3 - 2000.000000 s_2_3 > -1980.004472
t_1_4 - t_1_1 + 2000.000000 u_1_4_1 > 1.980000
t_1_1 - t_1_4 - 2000.000000 u_1_4_1 > -1997.062500
t_2_4 - t_2_1 + 2000.000000 u_2_4_1 > 1.218100
t_2_1 - t_2_4 - 2000.000000 u_2_4_1 > -1997.536200
t_1_4 - t_1_2 + 2000.000000 u_1_4_2 > 2.779500
t_1_2 - t_1_4 - 2000.000000 u_1_4_2 > -1997.062500
t_2_4 - t_2_2 + 2000.000000 u_2_4_2 > 2.423700
t_2_2 - t_2_4 - 2000.000000 u_2_4_2 > -1997.536200
t_1_4 - t_1_3 + 2000.000000 u_1_4_3 > 5.219700
t_1_3 - t_1_4 - 2000.000000 u_1_4_3 > -1997.062500
t_2_4 - t_2_3 + 2000.000000 u_2_4_3 > 3.929800
t_2_3 - t_2_4 - 2000.000000 u_2_4_3 > -1997.536200
t_1_5 - t_1_4 - 2000.000000 s_1_4 > -1989.029636
t_1_5 - t_2_4 - 2000.000000 s_2_4 > -1981.470472
t_2_5 - t_1_4 - 2000.000000 s_1_4 > -1989.029636
t_2_5 - t_2_4 - 2000.000000 s_2_4 > -1981.470472
t_1_5 - t_1_1 - 2000.000000 s_1_1 > -1989.987136
t_1_5 - t_2_1 - 2000.000000 s_2_1 > -1982.716172
t_2_5 - t_1_1 - 2000.000000 s_1_1 > -1989.987136
t_2_5 - t_2_1 - 2000.000000 s_2_1 > -1982.716172
t_1_5 - t_1_2 - 2000.000000 s_1_2 > -1989.187636
t_1_5 - t_2_2 - 2000.000000 s_2_2 > -1981.510572
t_2_5 - t_1_2 - 2000.000000 s_1_2 > -1989.187636
t_2_5 - t_2_2 - 2000.000000 s_2_2 > -1981.510572
t_1_5 - t_1_3 - 2000.000000 s_1_3 > -1986.747436
t_1_5 - t_2_3 - 2000.000000 s_2_3 > -1980.004472
t_2_5 - t_1_3 - 2000.000000 s_1_3 > -1986.747436
t_2_5 - t_2_3 - 2000.000000 s_2_3 > -1980.004472
t_1_5 - t_1_4 - 2000.000000 s_1_4 > -1989.029636
t_1_5 - t_2_4 - 2000.000000 s_2_4 > -1981.470472
t_2_5 - t_1_4 - 2000.000000 s_1_4 > -1989.029636
t_2_5 - t_2_4 - 2000.000000 s_2_4 > -1981.470472
Binary
s_1_1
s_2_1
s_1_2
s_2_2
s_1_3
s_2_3
s_1_4
s_2_4
s_1_5
s_2_5
u_1_1_2
u_2_1_2
u_1_1_3
u_2_1_3
u_1_1_4
u_2_1_4
u_1_2_1
u_2_2_1
u_1_2_3
u_2_2_3
u_1_2_4
u_2_2_4
u_1_3_1
u_2_3_1
u_1_3_2
u_2_3_2
u_1_3_4
u_2_3_4
u_1_4_1
u_2_4_1
u_1_4_2
u_2_4_2
u_1_4_3
u_2_4_3

End
